(declare-const x Int)
(declare-const term_to_project_onto Real)
(declare-const |counter'| Int)
(declare-const |r'| Int)
(declare-const p Int)
(declare-const |tmp'| Int)
(declare-const term_to_project_onto1 Real)
(declare-const uninterp6 Int)
(declare-const |c'0| Int)
(declare-const term_to_project_onto5 Real)
(declare-const |a'| Int)
(declare-const |k'| Int)
(declare-const term_to_project_onto3 Real)
(declare-const uninterp0 Int)
(declare-const |s'| Int)
(declare-const counter Int)
(declare-const |tmp___0'| Int)
(declare-const uninterp Int)
(declare-const uninterp1 Int)
(declare-const term_to_project_onto9 Real)
(declare-const q Int)
(declare-const |p'| Int)
(declare-const s Int)
(declare-const K Int)
(declare-const term_to_project_onto4 Real)
(declare-const uninterp5 Int)
(declare-const uninterp2 Int)
(declare-const |b'| Int)
(declare-const |counter'0| Int)
(declare-const a Int)
(declare-const tmp___0 Int)
(declare-const term_to_project_onto6 Real)
(declare-const uninterp3 Int)
(declare-const uninterp4 Int)
(declare-const b Int)
(declare-const term_to_project_onto2 Real)
(declare-const |tmp'0| Int)
(declare-const |k'0| Int)
(declare-const term_to_project_onto0 Real)
(declare-const |c'| Int)
(declare-const c Int)
(declare-const k Int)
(declare-const r Int)
(declare-const term_to_project_onto7 Real)
(declare-const |q'| Int)
(declare-const tmp Int)
(declare-const uninterp7 Int)
(declare-const term_to_project_onto8 Real)
(declare-const uninterp8 Int)
(declare-const y Int)
(assert (and (<= (- k) 0) (<= (- c) 0) (<= (+ (- a) 1) 0) (<= (- b) 0)
               (<= (- counter) 0) (<= (+ (- y) 1) 0) (<= (+ (- x) 1) 0)
               (<= (+ counter -19) 0) (or (<= (+ b 1) 0) (<= (+ (- b) 1) 0))
               (= (+ (- |counter'0|) K counter 1) 0) (= (+ (- |k'0|) K) 0)
               (<= (+ |c'0| K (- a)) 0)
               (or (and (= K 0) (= (+ (- |tmp'0|) tmp) 0) (= (- |k'0|) 0)
                          (= (+ (- |c'0|) a) 0)
                          (= (+ (- |counter'0|) counter 1) 0))
                     (and (<= (+ (- K) 1) 0) (<= (+ counter -18) 0)
                            (<= (+ b (- a)) 0) (<= (+ r p (- a)) 0)
                            (<= (+ q s (- b)) 0) (<= (+ (- b) 1) 0)
                            (<= (- counter) 0) (<= (+ (- y) 1) 0)
                            (<= (+ (- x) 1) 0)
                            (= (+ |tmp'0| (- |counter'0|) 1) 0)
                            (<= (+ |c'0| |k'0| b (- a) -1) 0)
                            (<= (+ |counter'0| -20) 0) (<= (+ (- |k'0|) 1) 0)
                            (<= (- |c'0|) 0) (<= (+ (- |counter'0|) 2) 0)
                            (<= (+ r p (- a)) 0) (<= (+ q s (- b)) 0)
                            (<= (+ (- b) 1) 0) (<= (+ (- y) 1) 0)
                            (<= (+ (- x) 1) 0))) (<= (- K) 0)
               (<= (- |k'0|) 0) (<= (- |c'0|) 0) (<= (+ (- a) 1) 0)
               (<= (+ (- b) 1) 0) (<= (+ (- |counter'0|) 1) 0)
               (<= (+ (- y) 1) 0) (<= (+ (- x) 1) 0)
               (or (and (<= (+ |counter'0| -19) 0)
                          (= (+ (- |c'0|) (- uninterp) a) 0)
                          (= (+ (- uninterp0) (- uninterp1) a) 0)
                          (= (+ (- uninterp2) (- uninterp3) b) 0)
                          (= (+ uninterp4 uninterp5 (- uninterp2)
                                  (- uninterp3) (- uninterp6) b) 0)
                          (<= (+ |c'0| (- b) 1) 0))
                     (<= (+ (- |counter'0|) 20) 0))
               (= (+ |tmp___0'| (- counter)) 0)
               (= (+ |tmp'| (- |counter'0|)) 0) (= (+ |k'| (- |k'0|)) 0)
               (= (+ |c'| (- |c'0|)) 0) (= (+ |s'| (- r) uninterp7) 0)
               (= (+ |r'| (- s)) 0) (= (+ |q'| (- p) uninterp8) 0)
               (= (+ |p'| (- q)) 0) (= (+ |b'| (- |c'0|)) 0)
               (= (+ |a'| (- b)) 0) (= (+ |counter'| (- |counter'0|) -1) 0)
               (<= uninterp8 (* 19 q)) (<= uninterp7 (* 19 s))
               (<= 1 uninterp6) (<= b uninterp6) (<= y uninterp6)
               (<= s uninterp3) (<= q uninterp2) (<= r uninterp1)
               (<= p uninterp0) (<= 0 uninterp) (<= |k'0| uninterp)
               (<= uninterp (* 19 b))
               (= term_to_project_onto9 (+ |counter'| (- counter)))
               (= term_to_project_onto8 (+ |a'| (- a)))
               (= term_to_project_onto7 (+ |b'| (- b)))
               (= term_to_project_onto6 (+ |p'| (- p)))
               (= term_to_project_onto5 (+ |q'| (- q)))
               (= term_to_project_onto4 (+ |r'| (- r)))
               (= term_to_project_onto3 (+ |s'| (- s)))
               (= term_to_project_onto2 (+ |c'| (- c)))
               (= term_to_project_onto1 (+ |k'| (- k)))
               (= term_to_project_onto0 (+ |tmp'| (- tmp)))
               (= term_to_project_onto (+ |tmp___0'| (- tmp___0)))))
(check-sat)
